sat
((prim_1_1 4))
((prim_1_2 4))
((prim_1_3 4))
((prim_1_4 4))
((prim_1_5 4))
((prim_1_6 4))
((prim_1_7 3))
((prim_1_8 3))
((prim_1_9 3))
((prim_1_10 3))
((prim_1_11 1))
((prim_1_12 1))
((prim_1_13 1))
((prim_1_14 1))
((prim_1_15 1))
((prim_1_16 1))
((prim_1_17 1))
((prim_1_18 3))
((prim_1_19 3))
((prim_1_20 3))
((x_1_1 5))
((x_1_2 5))
((x_1_3 5))
((x_1_4 5))
((x_1_5 5))
((x_1_6 5))
((x_1_7 5))
((x_1_8 4))
((x_1_9 3))
((x_1_10 2))
((x_1_11 1))
((x_1_12 2))
((x_1_13 3))
((x_1_14 4))
((x_1_15 5))
((x_1_16 6))
((x_1_17 7))
((x_1_18 8))
((x_1_19 7))
((x_1_20 6))
((x_1_21 5))
((y_1_1 0))
((y_1_2 1))
((y_1_3 2))
((y_1_4 3))
((y_1_5 4))
((y_1_6 5))
((y_1_7 6))
((y_1_8 6))
((y_1_9 6))
((y_1_10 6))
((y_1_11 6))
((y_1_12 6))
((y_1_13 6))
((y_1_14 6))
((y_1_15 6))
((y_1_16 6))
((y_1_17 6))
((y_1_18 6))
((y_1_19 6))
((y_1_20 6))
((y_1_21 6))
((vel_i_1_1 0))
((vel_i_1_2 0))
((vel_i_1_3 0))
((vel_i_1_4 0))
((vel_i_1_5 0))
((vel_i_1_6 0))
((vel_i_1_7 0))
((vel_i_1_8 0))
((vel_i_1_9 0))
((vel_i_1_10 0))
((vel_i_1_11 0))
((vel_i_1_12 0))
((vel_i_1_13 0))
((vel_i_1_14 0))
((vel_i_1_15 0))
((vel_i_1_16 0))
((vel_i_1_17 0))
((vel_i_1_18 0))
((vel_i_1_19 0))
((vel_i_1_20 0))
((vel_f_1_1 0))
((vel_f_1_2 0))
((vel_f_1_3 0))
((vel_f_1_4 0))
((vel_f_1_5 0))
((vel_f_1_6 0))
((vel_f_1_7 0))
((vel_f_1_8 0))
((vel_f_1_9 0))
((vel_f_1_10 0))
((vel_f_1_11 0))
((vel_f_1_12 0))
((vel_f_1_13 0))
((vel_f_1_14 0))
((vel_f_1_15 0))
((vel_f_1_16 0))
((vel_f_1_17 0))
((vel_f_1_18 0))
((vel_f_1_19 0))
((vel_f_1_20 0))
((x_f_1_1 0))
((x_f_1_2 0))
((x_f_1_3 0))
((x_f_1_4 0))
((x_f_1_5 0))
((x_f_1_6 0))
((x_f_1_7 (- 1)))
((x_f_1_8 (- 1)))
((x_f_1_9 (- 1)))
((x_f_1_10 (- 1)))
((x_f_1_11 1))
((x_f_1_12 1))
((x_f_1_13 1))
((x_f_1_14 1))
((x_f_1_15 1))
((x_f_1_16 1))
((x_f_1_17 1))
((x_f_1_18 (- 1)))
((x_f_1_19 (- 1)))
((x_f_1_20 (- 1)))
((y_f_1_1 1))
((y_f_1_2 1))
((y_f_1_3 1))
((y_f_1_4 1))
((y_f_1_5 1))
((y_f_1_6 1))
((y_f_1_7 0))
((y_f_1_8 0))
((y_f_1_9 0))
((y_f_1_10 0))
((y_f_1_11 0))
((y_f_1_12 0))
((y_f_1_13 0))
((y_f_1_14 0))
((y_f_1_15 0))
((y_f_1_16 0))
((y_f_1_17 0))
((y_f_1_18 0))
((y_f_1_19 0))
((y_f_1_20 0))
((cost_1_1 1.0))
((cost_1_2 1.0))
((cost_1_3 1.0))
((cost_1_4 1.0))
((cost_1_5 1.0))
((cost_1_6 1.0))
((cost_1_7 1.0))
((cost_1_8 1.0))
((cost_1_9 1.0))
((cost_1_10 1.0))
((cost_1_11 1.0))
((cost_1_12 1.0))
((cost_1_13 1.0))
((cost_1_14 1.0))
((cost_1_15 1.0))
((cost_1_16 1.0))
((cost_1_17 1.0))
((cost_1_18 1.0))
((cost_1_19 1.0))
((cost_1_20 1.0))
((total_cost 20.0))
((charge_1_1 1000.0))
((charge_1_2 999.0))
((charge_1_3 998.0))
((charge_1_4 997.0))
((charge_1_5 996.0))
((charge_1_6 995.0))
((charge_1_7 994.0))
((charge_1_8 993.0))
((charge_1_9 992.0))
((charge_1_10 991.0))
((charge_1_11 990.0))
((charge_1_12 989.0))
((charge_1_13 988.0))
((charge_1_14 987.0))
((charge_1_15 986.0))
((charge_1_16 985.0))
((charge_1_17 984.0))
((charge_1_18 983.0))
((charge_1_19 982.0))
((charge_1_20 981.0))
((charge_1_21 980.0))
((station_x_1 2))
((station_y_1 16))
((station_x_2 0))
((station_y_2 2))
((station_x_3 0))
((station_y_3 7))
((l_1 false))
((l_2 false))
((l_3 false))
((l_4 false))
((l_5 false))
((l_6 false))
((l_7 true))
((l_8 false))
((l_9 false))
((l_10 false))
((l_11 false))
((l_12 false))
((l_13 false))
((l_14 false))
((l_15 false))
((l_16 false))
((l_17 false))
((l_18 false))
((l_19 false))
((l_20 false))
